NAME lp_typeD_886
OBJSENSE MAX
ROWS
 N  OBJ
 L  c0      
 L  c1      
 G  c2      
 G  c3      
 G  c4      
 L  c_key_upper
 G  c_key_lower
 G  _chain_constr_1
 G  _chain_constr_2
 G  _chain_constr_3
 G  _chain_constr_4
 G  _chain_constr_5
 G  _chain_cycle
COLUMNS
    x0        OBJ       5.8420516595375771e-01
    x0        c0        1.4577529965067806e+00
    x0        c1        8.6231790678131448e-01
    x0        c2        8.1446754251801057e-01
    x0        c3        1.3150279870132557e+00
    x0        c4        1.9889225509515442e+00
    x0        c_key_upper  1.5940712176449
    x0        c_key_lower  1.5940712176449
    x1        OBJ       1.2606919256390898e+00
    x1        c0        1.6945847025822847e+00
    x1        c1        5.1019079480653584e-01
    x1        c2        1.1363530739238472e+00
    x1        c3        7.3129693803780671e-01
    x1        c4        1.0475989436912729e+00
    x1        c_key_upper  1.8717313999030447e+00
    x1        c_key_lower  1.8717313999030447e+00
    x2        OBJ       1.2274457002166883e+00
    x2        c0        0.551827569841583
    x2        c1        6.0480644563460628e-01
    x2        c2        1.7611229128218491e+00
    x2        c3        0.694768216782146
    x2        c4        8.8943680136576952e-01
    x2        c_key_upper  1.6483734776799672e+00
    x2        c_key_lower  1.6483734776799672e+00
    x3        OBJ       1.2616540798918376e+00
    x3        c0        8.4472948224995714e-01
    x3        c1        0.675289806401882
    x3        c2        1.3722269533024503e+00
    x3        c3        1.0846388025859326e+00
    x3        c4        0.694234449945057
    x3        c_key_upper  1.4967662318759878e+00
    x3        c_key_lower  1.4967662318759878e+00
    x4        OBJ       5.3720371880992157e-01
    x4        c0        9.6952948102526970e-01
    x4        c1        1.7751264751617268e+00
    x4        c2        1.5547089182368921e+00
    x4        c3        1.1927171528629013e+00
    x4        c4        6.5404014237460961e-01
    x4        c_key_upper  1.2947104878042115e+00
    x4        c_key_lower  1.2947104878042115e+00
    _chain_var_0  _chain_constr_1  -1
    _chain_var_0  _chain_cycle  1
    _chain_var_1  _chain_constr_1  1
    _chain_var_1  _chain_constr_2  -1
    _chain_var_2  _chain_constr_2  1
    _chain_var_2  _chain_constr_3  -1
    _chain_var_3  _chain_constr_3  1
    _chain_var_3  _chain_constr_4  -1
    _chain_var_4  _chain_constr_4  1
    _chain_var_4  _chain_constr_5  -1
    _chain_var_5  _chain_constr_5  1
    _chain_var_5  _chain_cycle  -1
RHS
    RHS1      c0        2.7633687834921027e+01
    RHS1      c1        1.8619862872435803e+01
    RHS1      c2        8.6707392796601486e+00
    RHS1      c3        6.5937452217626387e+00
    RHS1      c4        8.62592011570785
    RHS1      c_key_upper  3.9528264074540552e+01
    RHS1      c_key_lower  1.9764132037270276e+01
    RHS1      _chain_constr_1  10
    RHS1      _chain_constr_2  10
    RHS1      _chain_constr_3  10
    RHS1      _chain_constr_4  10
    RHS1      _chain_constr_5  10
    RHS1      _chain_cycle  10
BOUNDS
 UP BND1      x0        10
 UP BND1      x1        10
 UP BND1      x2        10
 UP BND1      x3        10
 UP BND1      x4        10
 UP BND1      _chain_var_0  100
 UP BND1      _chain_var_1  100
 UP BND1      _chain_var_2  100
 UP BND1      _chain_var_3  100
 UP BND1      _chain_var_4  100
 UP BND1      _chain_var_5  100
ENDATA
